BAYES
196
2 2 2 2 2 2 2 2 2 2 2 2 2 2 2 2 2 2 2 2 2 2 2 2 2 2 2 2 2 2 2 2 2 2 2 2 2 2 2 2 2 2 2 2 2 2 2 2 2 2 2 2 2 2 2 2 2 2 2 2 2 2 2 2 2 2 2 2 2 2 2 2 2 2 2 2 2 2 2 2 2 2 2 2 2 2 2 2 2 2 2 2 2 2 2 2 2 2 2 2 2 2 2 2 2 2 2 2 2 2 2 2 2 2 2 2 2 2 2 2 2 2 2 2 2 2 2 2 2 2 2 2 2 2 2 2 2 2 2 2 2 2 2 2 2 2 2 2 2 2 2 2 2 2 2 2 2 2 2 2 2 2 2 2 2 2 2 2 2 2 2 2 2 2 2 2 2 2 2 2 2 2 2 2 2 2 2 2 2 2 2 2 2 2 2 2
196
3 14 1 0
3 15 2 1
3 16 3 2
3 17 4 3
3 18 5 4
3 19 6 5
3 20 7 6
3 21 8 7
3 22 9 8
3 23 10 9
3 24 11 10
3 25 12 11
3 26 13 12
2 27 13
3 28 15 14
3 29 16 15
3 30 17 16
3 31 18 17
3 32 19 18
3 33 20 19
3 34 21 20
3 35 22 21
3 36 23 22
3 37 24 23
3 38 25 24
3 39 26 25
3 40 27 26
2 41 27
3 42 29 28
3 43 30 29
3 44 31 30
3 45 32 31
3 46 33 32
3 47 34 33
3 48 35 34
3 49 36 35
3 50 37 36
3 51 38 37
3 52 39 38
3 53 40 39
3 54 41 40
2 55 41
3 56 43 42
3 57 44 43
3 58 45 44
3 59 46 45
3 60 47 46
3 61 48 47
3 62 49 48
3 63 50 49
3 64 51 50
3 65 52 51
3 66 53 52
3 67 54 53
3 68 55 54
2 69 55
3 70 57 56
3 71 58 57
3 72 59 58
3 73 60 59
3 74 61 60
3 75 62 61
3 76 63 62
3 77 64 63
3 78 65 64
3 79 66 65
3 80 67 66
3 81 68 67
3 82 69 68
2 83 69
3 84 71 70
3 85 72 71
3 86 73 72
3 87 74 73
3 88 75 74
3 89 76 75
3 90 77 76
3 91 78 77
3 92 79 78
3 93 80 79
3 94 81 80
3 95 82 81
3 96 83 82
2 97 83
3 98 85 84
3 99 86 85
3 100 87 86
3 101 88 87
3 102 89 88
3 103 90 89
3 104 91 90
3 105 92 91
3 106 93 92
3 107 94 93
3 108 95 94
3 109 96 95
3 110 97 96
2 111 97
3 112 99 98
3 113 100 99
3 114 101 100
3 115 102 101
3 116 103 102
3 117 104 103
3 118 105 104
3 119 106 105
3 120 107 106
3 121 108 107
3 122 109 108
3 123 110 109
3 124 111 110
2 125 111
3 126 113 112
3 127 114 113
3 128 115 114
3 129 116 115
3 130 117 116
3 131 118 117
3 132 119 118
3 133 120 119
3 134 121 120
3 135 122 121
3 136 123 122
3 137 124 123
3 138 125 124
2 139 125
3 140 127 126
3 141 128 127
3 142 129 128
3 143 130 129
3 144 131 130
3 145 132 131
3 146 133 132
3 147 134 133
3 148 135 134
3 149 136 135
3 150 137 136
3 151 138 137
3 152 139 138
2 153 139
3 154 141 140
3 155 142 141
3 156 143 142
3 157 144 143
3 158 145 144
3 159 146 145
3 160 147 146
3 161 148 147
3 162 149 148
3 163 150 149
3 164 151 150
3 165 152 151
3 166 153 152
2 167 153
3 168 155 154
3 169 156 155
3 170 157 156
3 171 158 157
3 172 159 158
3 173 160 159
3 174 161 160
3 175 162 161
3 176 163 162
3 177 164 163
3 178 165 164
3 179 166 165
3 180 167 166
2 181 167
3 182 169 168
3 183 170 169
3 184 171 170
3 185 172 171
3 186 173 172
3 187 174 173
3 188 175 174
3 189 176 175
3 190 177 176
3 191 178 177
3 192 179 178
3 193 180 179
3 194 181 180
2 195 181
2 183 182
2 184 183
2 185 184
2 186 185
2 187 186
2 188 187
2 189 188
2 190 189
2 191 190
2 192 191
2 193 192
2 194 193
2 195 194
1  195
8
1 0 0 1 0 1 1 0
8
1 0 1 0 0 1 0 1
8
0 1 0 1 1 0 0 1
8
1 0 1 0 0 1 1 0
8
1 0 0 1 0 1 1 0
8
1 0 1 0 1 0 1 0
8
1 0 0 1 0 1 1 0
8
0.035407099521868234 0.9645929004781317 0.08595061749064624 0.9140493825093537 0.8562735015125148 0.14372649848748523 0.6942680259739884 0.3057319740260116
8
0 1 0 1 0 1 1 0
8
1 0 1 0 1 0 1 0
8
0 1 1 0 1 0 1 0
8
0 1 1 0 1 0 0 1
8
0 1 0 1 1 0 0 1
4
1 0 1 0
8
1 0 1 0 1 0 1 0
8
0 1 0 1 0 1 1 0
8
0 1 1 0 0 1 1 0
8
0 1 0 1 1 0 1 0
8
0 1 1 0 1 0 0 1
8
1 0 1 0 1 0 0 1
8
0 1 1 0 1 0 0 1
8
0 1 1 0 0 1 0 1
8
0 1 1 0 1 0 0 1
8
0 1 0 1 0 1 1 0
8
0 1 1 0 1 0 1 0
8
0 1 1 0 0 1 0 1
8
1 0 0 1 0 1 1 0
4
0 1 0 1
8
0.7563999448899771 0.24360005511002292 0.06842161799177589 0.9315783820082241 0.8409050069888075 0.1590949930111925 0.6581354950542673 0.3418645049457326
8
1 0 1 0 1 0 0 1
8
1 0 1 0 0 1 0 1
8
1 0 0 1 1 0 1 0
8
0 1 1 0 1 0 0 1
8
0 1 1 0 0 1 1 0
8
0 1 0 1 1 0 0 1
8
0 1 1 0 0 1 0 1
8
1 0 0 1 1 0 1 0
8
0.9229044502883582 0.07709554971164181 0.6463149582597536 0.35368504174024645 0.9135702205170793 0.08642977948292076 0.8877304977191679 0.11226950228083213
8
0 1 1 0 1 0 1 0
8
1 0 0 1 0 1 1 0
8
0 1 0 1 0 1 1 0
4
1 0 0 1
8
1 0 1 0 1 0 1 0
8
1 0 0 1 1 0 1 0
8
1 0 1 0 0 1 0 1
8
0 1 0 1 1 0 0 1
8
0 1 1 0 0 1 1 0
8
1 0 1 0 0 1 1 0
8
0 1 1 0 0 1 0 1
8
0 1 1 0 0 1 0 1
8
0 1 0 1 1 0 0 1
8
0 1 0 1 1 0 1 0
8
1 0 0 1 1 0 1 0
8
0 1 1 0 1 0 0 1
8
0 1 0 1 0 1 1 0
4
1 0 1 0
8
1 0 1 0 0 1 1 0
8
1 0 0 1 0 1 0 1
8
0.8429006688757646 0.15709933112423538 0.7304030980783467 0.26959690192165325 0.3885036208409356 0.6114963791590644 0.3709448427524331 0.6290551572475669
8
0 1 0 1 0 1 1 0
8
0.9517061722017567 0.04829382779824332 0.10903312157602676 0.8909668784239733 0.22772921571554997 0.7722707842844501 0.37509602052247587 0.6249039794775242
8
0.75392904944695 0.24607095055304987 0.44495614042674 0.5550438595732601 0.7127446568336747 0.28725534316632534 0.038676413332535055 0.9613235866674649
8
0.8578294127783399 0.14217058722166012 0.5467565451541742 0.4532434548458259 0.5108303148694862 0.48916968513051384 0.08145674009429638 0.9185432599057036
8
0 1 0 1 1 0 1 0
8
1 0 1 0 0 1 1 0
8
0.22941793313751635 0.7705820668624837 0.20821313196204916 0.7917868680379508 0.49169004771510827 0.5083099522848917 0.7983877226511147 0.20161227734888526
8
0 1 1 0 0 1 0 1
8
1 0 1 0 0 1 1 0
8
1 0 0 1 0 1 1 0
4
0 1 0 1
8
1 0 1 0 1 0 0 1
8
1 0 1 0 0 1 1 0
8
1 0 1 0 1 0 0 1
8
0.1585107490857777 0.8414892509142222 0.46827386577549174 0.5317261342245083 0.8275000030349414 0.1724999969650586 0.5999201931374183 0.40007980686258177
8
1 0 1 0 0 1 1 0
8
0 1 0 1 0 1 1 0
8
0.3175120814604464 0.6824879185395536 0.10484693313344788 0.8951530668665522 0.5718445495129751 0.42815545048702497 0.23588759457996464 0.7641124054200352
8
0 1 1 0 1 0 0 1
8
0 1 0 1 1 0 1 0
8
1 0 0 1 1 0 1 0
8
1 0 0 1 0 1 1 0
8
1 0 0 1 1 0 1 0
8
1 0 1 0 0 1 1 0
4
1 0 1 0
8
0 1 0 1 1 0 1 0
8
0 1 1 0 0 1 0 1
8
0 1 0 1 0 1 0 1
8
0.1945103083389911 0.8054896916610089 0.46620807912313916 0.5337919208768609 0.1971783347130699 0.8028216652869301 0.7981324401305677 0.20186755986943233
8
0 1 1 0 0 1 0 1
8
1 0 0 1 1 0 1 0
8
0 1 0 1 1 0 1 0
8
1 0 0 1 1 0 1 0
8
1 0 0 1 1 0 1 0
8
0 1 0 1 1 0 1 0
8
0 1 1 0 1 0 1 0
8
1 0 0 1 0 1 0 1
8
0 1 0 1 1 0 1 0
4
0.08539207619536744 0.9146079238046325 0.5444741096882818 0.45552589031171825
8
0 1 1 0 0 1 0 1
8
1 0 1 0 0 1 0 1
8
0 1 1 0 0 1 0 1
8
1 0 0 1 0 1 1 0
8
0 1 0 1 0 1 0 1
8
1 0 0 1 1 0 0 1
8
1 0 0 1 1 0 0 1
8
0 1 0 1 0 1 1 0
8
0.8049983480538186 0.19500165194618133 0.6480245004171077 0.35197549958289237 0.22967861640353351 0.7703213835964665 0.5476347788535615 0.4523652211464385
8
0 1 0 1 0 1 0 1
8
0 1 1 0 1 0 0 1
8
0 1 1 0 0 1 1 0
8
0 1 0 1 0 1 1 0
4
1 0 1 0
8
1 0 1 0 0 1 1 0
8
0 1 1 0 0 1 0 1
8
0 1 0 1 1 0 1 0
8
0.125244616055894 0.874755383944106 0.6854561811788974 0.3145438188211026 0.27784238303490044 0.7221576169650995 0.6740771348727023 0.3259228651272978
8
0 1 1 0 0 1 1 0
8
1 0 0 1 0 1 0 1
8
0.0042171110590322435 0.9957828889409678 0.14207009350223468 0.8579299064977653 0.8711977040516368 0.1288022959483633 0.7125312574342718 0.287468742565728
8
0 1 1 0 0 1 1 0
8
1 0 0 1 0 1 1 0
8
1 0 1 0 0 1 0 1
8
1 0 0 1 0 1 0 1
8
1 0 1 0 0 1 1 0
8
0 1 1 0 0 1 0 1
4
0 1 0 1
8
0 1 0 1 0 1 1 0
8
0.4604664115535519 0.539533588446448 0.5935302664982673 0.40646973350173266 0.5687405139138707 0.4312594860861293 0.43827318598093934 0.5617268140190607
8
1 0 1 0 1 0 1 0
8
1 0 1 0 1 0 1 0
8
0 1 1 0 0 1 1 0
8
0 1 0 1 0 1 1 0
8
1 0 1 0 0 1 1 0
8
1 0 0 1 1 0 0 1
8
0 1 1 0 1 0 0 1
8
0 1 0 1 1 0 0 1
8
0 1 0 1 1 0 0 1
8
1 0 1 0 1 0 0 1
8
0 1 1 0 0 1 1 0
4
1 0 0 1
8
0 1 0 1 1 0 0 1
8
1 0 0 1 1 0 0 1
8
0 1 1 0 1 0 0 1
8
0 1 1 0 0 1 1 0
8
1 0 0 1 1 0 1 0
8
0 1 1 0 0 1 0 1
8
0 1 0 1 1 0 1 0
8
0 1 1 0 1 0 0 1
8
0 1 1 0 1 0 1 0
8
1 0 0 1 1 0 0 1
8
0 1 1 0 1 0 0 1
8
0.6658436938053334 0.3341563061946667 0.7904125635116016 0.20958743648839842 0.4779392742206552 0.5220607257793448 0.1197257867449009 0.8802742132550991
8
0 1 0 1 1 0 0 1
4
0 1 0 1
8
1 0 0 1 1 0 0 1
8
0 1 1 0 0 1 1 0
8
1 0 1 0 0 1 1 0
8
0 1 1 0 0 1 0 1
8
1 0 1 0 1 0 1 0
8
0 1 0 1 0 1 1 0
8
1 0 0 1 0 1 0 1
8
1 0 1 0 1 0 0 1
8
1 0 0 1 1 0 0 1
8
1 0 0 1 1 0 0 1
8
1 0 1 0 1 0 0 1
8
1 0 0 1 1 0 0 1
8
0 1 1 0 1 0 0 1
4
0 1 1 0
8
0 1 0 1 1 0 0 1
8
0 1 1 0 1 0 1 0
8
1 0 1 0 1 0 1 0
8
0.5515462105085932 0.44845378949140674 0.0962931913021834 0.9037068086978166 0.3506239020223369 0.6493760979776632 0.3710791986760322 0.6289208013239678
8
0 1 1 0 0 1 1 0
8
1 0 0 1 0 1 0 1
8
0 1 0 1 1 0 1 0
8
1 0 0 1 0 1 0 1
8
1 0 1 0 0 1 1 0
8
0 1 1 0 0 1 1 0
8
0 1 1 0 1 0 0 1
8
1 0 1 0 0 1 1 0
8
0 1 0 1 1 0 1 0
4
0 1 1 0
4
1 0 0 1
4
1 0 0 1
4
0 1 0 1
4
0.5017672093950475 0.49823279060495246 0.1871581879449623 0.8128418120550377
4
1 0 1 0
4
0.7661648394704142 0.23383516052958572 0.3554112299073109 0.6445887700926891
4
1 0 0 1
4
1 0 0 1
4
1 0 0 1
4
0 1 0 1
4
0 1 1 0
4
0 1 0 1
4
1 0 1 0
2
0 1
